c FILE                  :graph_1N_has_2Parents.gr
c No. of vertices       :3
c No. of edges          :2
c Max. weight           :1
c Min. weight           :1
c Min. edge             :1
c Max. edge             :3
p sp 3 2
a 1 2 1
a 3 2 1
